(set-logic BV) (define-fun origCir ((n450 Bool) (n167 Bool) (n268 Bool) (n365 Bool) (n325 Bool)) Bool (and (and n450 (not (xor (and n268 n167) (not (and n365 n325))))) (xor (and (not (xor (and n268 n167) (not (and n365 n325)))) (and n365 n325)) (not (and n365 n325))))) (synth-fun skel ((n450 Bool) (n167 Bool) (n268 Bool) (n365 Bool) (n325 Bool)) Bool) (declare-var n450 Bool) (declare-var n167 Bool) (declare-var n268 Bool) (declare-var n365 Bool) (declare-var n325 Bool) (constraint (= (origCir n450 n167 n268 n365 n325) (skel n450 n167 n268 n365 n325))) (check-synth)
